p cnf 668 1428
1 2 0
3 2 0
-1 -3 -2 0
2 -4 -5 0
4 -2 -5 0
5 -2 -4 0
4 2 5 0
-5 0
6 7 0
8 7 0
-6 -8 -7 0
-3 7 -9 0
3 -7 -9 0
9 -7 -3 0
3 7 9 0
-9 0
8 -10 0
10 -8 0
11 12 0
13 12 0
-11 -13 -12 0
12 -14 -15 0
14 -12 -15 0
15 -12 -14 0
14 12 15 0
-15 0
16 17 0
18 17 0
-16 -18 -17 0
-13 17 -19 0
13 -17 -19 0
19 -17 -13 0
13 17 19 0
-19 0
20 21 0
22 21 0
-20 -22 -21 0
-18 21 -23 0
18 -21 -23 0
23 -21 -18 0
18 21 23 0
-23 0
24 25 0
26 25 0
-24 -26 -25 0
-22 25 -27 0
22 -25 -27 0
27 -25 -22 0
22 25 27 0
-27 0
28 29 0
30 29 0
-28 -30 -29 0
-26 29 -31 0
26 -29 -31 0
31 -29 -26 0
26 29 31 0
-31 0
28 32 0
33 32 0
-28 -33 -32 0
-30 32 -34 0
30 -32 -34 0
34 -32 -30 0
30 32 34 0
-34 0
35 36 0
37 36 0
-35 -37 -36 0
36 -38 -39 0
38 -36 -39 0
39 -36 -38 0
38 36 39 0
-39 0
40 41 0
42 41 0
-40 -42 -41 0
-37 41 -43 0
37 -41 -43 0
43 -41 -37 0
37 41 43 0
-43 0
44 45 0
46 45 0
-44 -46 -45 0
-42 45 -47 0
42 -45 -47 0
47 -45 -42 0
42 45 47 0
-47 0
44 48 0
49 48 0
-44 -49 -48 0
-46 48 -50 0
46 -48 -50 0
50 -48 -46 0
46 48 50 0
-50 0
51 52 0
53 52 0
-51 -53 -52 0
52 -54 -55 0
54 -52 -55 0
55 -52 -54 0
54 52 55 0
-55 0
56 57 0
58 57 0
-56 -58 -57 0
-53 57 -59 0
53 -57 -59 0
59 -57 -53 0
53 57 59 0
-59 0
56 60 0
61 60 0
-56 -61 -60 0
-58 60 -62 0
58 -60 -62 0
62 -60 -58 0
58 60 62 0
-62 0
63 64 0
65 64 0
-63 -65 -64 0
64 -66 -67 0
66 -64 -67 0
67 -64 -66 0
66 64 67 0
-67 0
68 69 0
70 69 0
-68 -70 -69 0
-65 69 -71 0
65 -69 -71 0
71 -69 -65 0
65 69 71 0
-71 0
72 73 0
74 73 0
-72 -74 -73 0
-70 73 -75 0
70 -73 -75 0
75 -73 -70 0
70 73 75 0
-75 0
76 77 0
78 77 0
-76 -78 -77 0
-74 77 -79 0
74 -77 -79 0
79 -77 -74 0
74 77 79 0
-79 0
80 81 0
82 81 0
-80 -82 -81 0
-78 81 -83 0
78 -81 -83 0
83 -81 -78 0
78 81 83 0
-83 0
72 84 0
76 84 0
80 84 0
85 84 0
-86 0
-82 84 -87 0
82 -84 -87 0
87 -84 -82 0
82 84 87 0
-87 0
88 89 0
90 89 0
-88 -90 -89 0
89 -91 -92 0
91 -89 -92 0
92 -89 -91 0
91 89 92 0
-92 0
93 94 0
95 94 0
-93 -95 -94 0
-90 94 -96 0
90 -94 -96 0
96 -94 -90 0
90 94 96 0
-96 0
97 98 0
99 98 0
-97 -99 -98 0
-95 98 -100 0
95 -98 -100 0
100 -98 -95 0
95 98 100 0
-100 0
97 101 0
102 101 0
-97 -102 -101 0
-99 101 -103 0
99 -101 -103 0
103 -101 -99 0
99 101 103 0
-103 0
104 105 0
106 105 0
-104 -106 -105 0
105 -107 -108 0
107 -105 -108 0
108 -105 -107 0
107 105 108 0
-108 0
109 110 0
111 110 0
-109 -111 -110 0
-106 110 -112 0
106 -110 -112 0
112 -110 -106 0
106 110 112 0
-112 0
111 -113 0
113 -111 0
114 115 0
116 115 0
-114 -116 -115 0
115 -117 -118 0
117 -115 -118 0
118 -115 -117 0
117 115 118 0
-118 0
119 120 0
121 120 0
-119 -121 -120 0
-116 120 -122 0
116 -120 -122 0
122 -120 -116 0
116 120 122 0
-122 0
123 124 0
125 124 0
-123 -125 -124 0
-121 124 -126 0
121 -124 -126 0
126 -124 -121 0
121 124 126 0
-126 0
127 128 0
129 128 0
-127 -129 -128 0
-125 128 -130 0
125 -128 -130 0
130 -128 -125 0
125 128 130 0
-130 0
131 132 0
133 132 0
-131 -133 -132 0
-129 132 -134 0
129 -132 -134 0
134 -132 -129 0
129 132 134 0
-134 0
135 136 0
137 136 0
-135 -137 -136 0
-133 136 -138 0
133 -136 -138 0
138 -136 -133 0
133 136 138 0
-138 0
127 139 0
131 139 0
135 139 0
140 139 0
-141 0
-137 139 -142 0
137 -139 -142 0
142 -139 -137 0
137 139 142 0
-142 0
143 144 0
145 144 0
-143 -145 -144 0
144 -146 -147 0
146 -144 -147 0
147 -144 -146 0
146 144 147 0
-147 0
148 149 0
150 149 0
-148 -150 -149 0
-145 149 -151 0
145 -149 -151 0
151 -149 -145 0
145 149 151 0
-151 0
148 152 0
153 152 0
-148 -153 -152 0
-150 152 -154 0
150 -152 -154 0
154 -152 -150 0
150 152 154 0
-154 0
155 156 0
157 156 0
-155 -157 -156 0
156 -158 -159 0
158 -156 -159 0
159 -156 -158 0
158 156 159 0
-159 0
160 161 0
162 161 0
-160 -162 -161 0
-157 161 -163 0
157 -161 -163 0
163 -161 -157 0
157 161 163 0
-163 0
162 -164 0
164 -162 0
165 166 0
167 166 0
-165 -167 -166 0
-168 166 -169 0
168 -166 -169 0
169 -166 -168 0
168 166 169 0
-169 0
170 171 0
172 171 0
-170 -172 -171 0
-167 171 -173 0
167 -171 -173 0
173 -171 -167 0
167 171 173 0
-173 0
174 175 0
176 175 0
-174 -176 -175 0
-172 175 -177 0
172 -175 -177 0
177 -175 -172 0
172 175 177 0
-177 0
178 179 0
180 179 0
-178 -180 -179 0
-176 179 -181 0
176 -179 -181 0
181 -179 -176 0
176 179 181 0
-181 0
182 183 0
184 183 0
-182 -184 -183 0
-180 183 -185 0
180 -183 -185 0
185 -183 -180 0
180 183 185 0
-185 0
174 186 0
178 186 0
182 186 0
187 186 0
-188 0
-184 186 -189 0
184 -186 -189 0
189 -186 -184 0
184 186 189 0
-189 0
190 191 0
192 191 0
-190 -192 -191 0
-193 191 -194 0
193 -191 -194 0
194 -191 -193 0
193 191 194 0
-194 0
195 196 0
197 196 0
-195 -197 -196 0
-192 196 -198 0
192 -196 -198 0
198 -196 -192 0
192 196 198 0
-198 0
199 200 0
201 200 0
-199 -201 -200 0
-197 200 -202 0
197 -200 -202 0
202 -200 -197 0
197 200 202 0
-202 0
203 204 0
205 204 0
-203 -205 -204 0
-201 204 -206 0
201 -204 -206 0
206 -204 -201 0
201 204 206 0
-206 0
207 208 0
209 208 0
-207 -209 -208 0
-205 208 -210 0
205 -208 -210 0
210 -208 -205 0
205 208 210 0
-210 0
207 211 0
212 211 0
-207 -212 -211 0
-209 211 -213 0
209 -211 -213 0
213 -211 -209 0
209 211 213 0
-213 0
214 215 0
216 215 0
-214 -216 -215 0
-217 215 -218 0
217 -215 -218 0
218 -215 -217 0
217 215 218 0
-218 0
219 220 0
221 220 0
-219 -221 -220 0
-216 220 -222 0
216 -220 -222 0
222 -220 -216 0
216 220 222 0
-222 0
223 224 0
225 224 0
-223 -225 -224 0
-221 224 -226 0
221 -224 -226 0
226 -224 -221 0
221 224 226 0
-226 0
227 228 0
229 228 0
-227 -229 -228 0
-225 228 -230 0
225 -228 -230 0
230 -228 -225 0
225 228 230 0
-230 0
231 232 0
233 232 0
-231 -233 -232 0
-229 232 -234 0
229 -232 -234 0
234 -232 -229 0
229 232 234 0
-234 0
227 235 0
231 235 0
236 235 0
-227 -231 -236 -235 0
-233 235 -237 0
233 -235 -237 0
237 -235 -233 0
233 235 237 0
-237 0
238 239 0
240 239 0
-238 -240 -239 0
-241 239 -242 0
241 -239 -242 0
242 -239 -241 0
241 239 242 0
-242 0
243 244 0
245 244 0
-243 -245 -244 0
-240 244 -246 0
240 -244 -246 0
246 -244 -240 0
240 244 246 0
-246 0
247 248 0
249 248 0
-247 -249 -248 0
-245 248 -250 0
245 -248 -250 0
250 -248 -245 0
245 248 250 0
-250 0
251 252 0
253 252 0
-251 -253 -252 0
-249 252 -254 0
249 -252 -254 0
254 -252 -249 0
249 252 254 0
-254 0
255 256 0
257 256 0
-255 -257 -256 0
-253 256 -258 0
253 -256 -258 0
258 -256 -253 0
253 256 258 0
-258 0
259 260 0
261 260 0
-259 -261 -260 0
-257 260 -262 0
257 -260 -262 0
262 -260 -257 0
257 260 262 0
-262 0
263 264 0
265 264 0
-263 -265 -264 0
-261 264 -266 0
261 -264 -266 0
266 -264 -261 0
261 264 266 0
-266 0
255 267 0
259 267 0
263 267 0
268 267 0
-269 0
-265 267 -270 0
265 -267 -270 0
270 -267 -265 0
265 267 270 0
-270 0
271 272 0
273 272 0
-271 -273 -272 0
-274 272 -275 0
274 -272 -275 0
275 -272 -274 0
274 272 275 0
-275 0
276 277 0
278 277 0
-276 -278 -277 0
-273 277 -279 0
273 -277 -279 0
279 -277 -273 0
273 277 279 0
-279 0
280 281 0
282 281 0
-280 -282 -281 0
-278 281 -283 0
278 -281 -283 0
283 -281 -278 0
278 281 283 0
-283 0
280 284 0
285 284 0
-280 -285 -284 0
-282 284 -286 0
282 -284 -286 0
286 -284 -282 0
282 284 286 0
-286 0
287 288 0
289 288 0
-287 -289 -288 0
-290 288 -291 0
290 -288 -291 0
291 -288 -290 0
290 288 291 0
-291 0
292 293 0
294 293 0
-292 -294 -293 0
-289 293 -295 0
289 -293 -295 0
295 -293 -289 0
289 293 295 0
-295 0
296 297 0
298 297 0
-296 -298 -297 0
-294 297 -299 0
294 -297 -299 0
299 -297 -294 0
294 297 299 0
-299 0
300 301 0
302 301 0
-300 -302 -301 0
-298 301 -303 0
298 -301 -303 0
303 -301 -298 0
298 301 303 0
-303 0
296 304 0
300 304 0
305 304 0
-296 -300 -305 -304 0
-302 304 -306 0
302 -304 -306 0
306 -304 -302 0
302 304 306 0
-306 0
307 308 0
309 308 0
-307 -309 -308 0
-310 308 -311 0
310 -308 -311 0
311 -308 -310 0
310 308 311 0
-311 0
312 313 0
314 313 0
-312 -314 -313 0
-309 313 -315 0
309 -313 -315 0
315 -313 -309 0
309 313 315 0
-315 0
316 317 0
318 317 0
-316 -318 -317 0
-314 317 -319 0
314 -317 -319 0
319 -317 -314 0
314 317 319 0
-319 0
320 321 0
322 321 0
-320 -322 -321 0
-318 321 -323 0
318 -321 -323 0
323 -321 -318 0
318 321 323 0
-323 0
320 324 0
325 324 0
-320 -325 -324 0
-322 324 -326 0
322 -324 -326 0
326 -324 -322 0
322 324 326 0
-326 0
327 328 0
329 328 0
-327 -329 -328 0
-330 328 -331 0
330 -328 -331 0
331 -328 -330 0
330 328 331 0
-331 0
332 333 0
334 333 0
-332 -334 -333 0
-329 333 -335 0
329 -333 -335 0
335 -333 -329 0
329 333 335 0
-335 0
336 337 0
338 337 0
-336 -338 -337 0
-334 337 -339 0
334 -337 -339 0
339 -337 -334 0
334 337 339 0
-339 0
340 341 0
342 341 0
-340 -342 -341 0
-338 341 -343 0
338 -341 -343 0
343 -341 -338 0
338 341 343 0
-343 0
336 344 0
340 344 0
345 344 0
-336 -340 -345 -344 0
-342 344 -346 0
342 -344 -346 0
346 -344 -342 0
342 344 346 0
-346 0
347 348 0
349 348 0
-347 -349 -348 0
-350 348 -351 0
350 -348 -351 0
351 -348 -350 0
350 348 351 0
-351 0
352 353 0
354 353 0
-352 -354 -353 0
-349 353 -355 0
349 -353 -355 0
355 -353 -349 0
349 353 355 0
-355 0
356 357 0
358 357 0
-356 -358 -357 0
-354 357 -359 0
354 -357 -359 0
359 -357 -354 0
354 357 359 0
-359 0
358 -360 0
360 -358 0
361 362 0
363 362 0
-361 -363 -362 0
-364 362 -365 0
364 -362 -365 0
365 -362 -364 0
364 362 365 0
-365 0
366 367 0
368 367 0
-366 -368 -367 0
-363 367 -369 0
363 -367 -369 0
369 -367 -363 0
363 367 369 0
-369 0
370 371 0
372 371 0
-370 -372 -371 0
-368 371 -373 0
368 -371 -373 0
373 -371 -368 0
368 371 373 0
-373 0
374 375 0
376 375 0
-374 -376 -375 0
-372 375 -377 0
372 -375 -377 0
377 -375 -372 0
372 375 377 0
-377 0
370 378 0
374 378 0
379 378 0
-370 -374 -379 -378 0
-376 378 -380 0
376 -378 -380 0
380 -378 -376 0
376 378 380 0
-380 0
381 -382 0
383 381 0
382 -383 -381 0
1 -381 0
-1 381 0
384 -385 0
386 384 0
385 -386 -384 0
6 -384 0
-6 384 0
387 -388 0
389 387 0
388 -389 -387 0
10 -387 0
-10 387 0
390 -391 0
392 390 0
391 -392 -390 0
11 -390 0
-11 390 0
393 -394 0
395 393 0
394 -395 -393 0
16 -393 0
-16 393 0
396 -397 0
398 396 0
397 -398 -396 0
20 -396 0
-20 396 0
399 -400 0
401 399 0
400 -401 -399 0
24 -399 0
-24 399 0
402 -403 0
404 402 0
403 -404 -402 0
28 -402 0
-28 402 0
405 -406 0
407 405 0
406 -407 -405 0
33 -405 0
-33 405 0
408 -409 0
410 408 0
409 -410 -408 0
35 -408 0
-35 408 0
411 -412 0
413 411 0
412 -413 -411 0
40 -411 0
-40 411 0
414 -415 0
416 414 0
415 -416 -414 0
44 -414 0
-44 414 0
417 -418 0
419 417 0
418 -419 -417 0
49 -417 0
-49 417 0
420 -421 0
422 420 0
421 -422 -420 0
51 -420 0
-51 420 0
423 -424 0
425 423 0
424 -425 -423 0
56 -423 0
-56 423 0
426 -427 0
428 426 0
427 -428 -426 0
61 -426 0
-61 426 0
429 -430 0
431 429 0
430 -431 -429 0
63 -429 0
-63 429 0
432 -433 0
434 432 0
433 -434 -432 0
68 -432 0
-68 432 0
435 -436 0
437 435 0
436 -437 -435 0
72 -435 0
-72 435 0
438 -439 0
440 438 0
439 -440 -438 0
76 -438 0
-76 438 0
441 -442 0
443 441 0
442 -443 -441 0
80 -441 0
-80 441 0
444 -445 0
446 444 0
445 -446 -444 0
85 -444 0
-85 444 0
447 -448 0
449 447 0
448 -449 -447 0
88 -447 0
-88 447 0
450 -451 0
452 450 0
451 -452 -450 0
93 -450 0
-93 450 0
453 -454 0
455 453 0
454 -455 -453 0
97 -453 0
-97 453 0
456 -457 0
458 456 0
457 -458 -456 0
102 -456 0
-102 456 0
459 -460 0
461 459 0
460 -461 -459 0
104 -459 0
-104 459 0
462 -463 0
464 462 0
463 -464 -462 0
109 -462 0
-109 462 0
465 -466 0
467 465 0
466 -467 -465 0
113 -465 0
-113 465 0
468 -469 0
470 468 0
469 -470 -468 0
114 -468 0
-114 468 0
471 -472 0
473 471 0
472 -473 -471 0
119 -471 0
-119 471 0
474 -475 0
476 474 0
475 -476 -474 0
123 -474 0
-123 474 0
477 -478 0
479 477 0
478 -479 -477 0
127 -477 0
-127 477 0
480 -481 0
482 480 0
481 -482 -480 0
131 -480 0
-131 480 0
483 -484 0
485 483 0
484 -485 -483 0
135 -483 0
-135 483 0
486 -487 0
488 486 0
487 -488 -486 0
140 -486 0
-140 486 0
489 -490 0
491 489 0
490 -491 -489 0
143 -489 0
-143 489 0
492 -493 0
494 492 0
493 -494 -492 0
148 -492 0
-148 492 0
495 -496 0
497 495 0
496 -497 -495 0
153 -495 0
-153 495 0
498 -499 0
500 498 0
499 -500 -498 0
155 -498 0
-155 498 0
501 -502 0
503 501 0
502 -503 -501 0
160 -501 0
-160 501 0
504 -505 0
506 504 0
505 -506 -504 0
164 -504 0
-164 504 0
507 -508 0
509 507 0
508 -509 -507 0
165 -507 0
-165 507 0
510 -511 0
512 510 0
511 -512 -510 0
170 -510 0
-170 510 0
513 -514 0
515 513 0
514 -515 -513 0
174 -513 0
-174 513 0
516 -517 0
518 516 0
517 -518 -516 0
178 -516 0
-178 516 0
519 -520 0
521 519 0
520 -521 -519 0
182 -519 0
-182 519 0
522 -523 0
524 522 0
523 -524 -522 0
187 -522 0
-187 522 0
525 -526 0
527 525 0
526 -527 -525 0
190 -525 0
-190 525 0
528 -529 0
530 528 0
529 -530 -528 0
195 -528 0
-195 528 0
531 -532 0
533 531 0
532 -533 -531 0
199 -531 0
-199 531 0
534 -535 0
536 534 0
535 -536 -534 0
203 -534 0
-203 534 0
537 -538 0
539 537 0
538 -539 -537 0
207 -537 0
-207 537 0
540 -541 0
542 540 0
541 -542 -540 0
212 -540 0
-212 540 0
543 -544 0
545 543 0
544 -545 -543 0
214 -543 0
-214 543 0
546 -547 0
548 546 0
547 -548 -546 0
219 -546 0
-219 546 0
549 -550 0
551 549 0
550 -551 -549 0
223 -549 0
-223 549 0
552 -553 0
554 552 0
553 -554 -552 0
227 -552 0
-227 552 0
555 -556 0
557 555 0
556 -557 -555 0
231 -555 0
-231 555 0
558 -559 0
560 558 0
559 -560 -558 0
236 -558 0
-236 558 0
561 -562 0
563 561 0
562 -563 -561 0
238 -561 0
-238 561 0
564 -565 0
566 564 0
565 -566 -564 0
243 -564 0
-243 564 0
567 -568 0
569 567 0
568 -569 -567 0
247 -567 0
-247 567 0
570 -571 0
572 570 0
571 -572 -570 0
251 -570 0
-251 570 0
573 -574 0
575 573 0
574 -575 -573 0
255 -573 0
-255 573 0
576 -577 0
578 576 0
577 -578 -576 0
259 -576 0
-259 576 0
579 -580 0
581 579 0
580 -581 -579 0
263 -579 0
-263 579 0
582 -583 0
584 582 0
583 -584 -582 0
268 -582 0
-268 582 0
585 -586 0
587 585 0
586 -587 -585 0
271 -585 0
-271 585 0
588 -589 0
590 588 0
589 -590 -588 0
276 -588 0
-276 588 0
591 -592 0
593 591 0
592 -593 -591 0
280 -591 0
-280 591 0
594 -595 0
596 594 0
595 -596 -594 0
285 -594 0
-285 594 0
597 -598 0
599 597 0
598 -599 -597 0
287 -597 0
-287 597 0
600 -601 0
602 600 0
601 -602 -600 0
292 -600 0
-292 600 0
603 -604 0
605 603 0
604 -605 -603 0
296 -603 0
-296 603 0
606 -607 0
608 606 0
607 -608 -606 0
300 -606 0
-300 606 0
609 -610 0
611 609 0
610 -611 -609 0
305 -609 0
-305 609 0
612 -613 0
614 612 0
613 -614 -612 0
307 -612 0
-307 612 0
615 -616 0
617 615 0
616 -617 -615 0
312 -615 0
-312 615 0
618 -619 0
620 618 0
619 -620 -618 0
316 -618 0
-316 618 0
621 -622 0
623 621 0
622 -623 -621 0
320 -621 0
-320 621 0
624 -625 0
626 624 0
625 -626 -624 0
325 -624 0
-325 624 0
627 -628 0
629 627 0
628 -629 -627 0
327 -627 0
-327 627 0
630 -631 0
632 630 0
631 -632 -630 0
332 -630 0
-332 630 0
633 -634 0
635 633 0
634 -635 -633 0
336 -633 0
-336 633 0
636 -637 0
638 636 0
637 -638 -636 0
340 -636 0
-340 636 0
639 -640 0
641 639 0
640 -641 -639 0
345 -639 0
-345 639 0
642 -643 0
644 642 0
643 -644 -642 0
347 -642 0
-347 642 0
645 -646 0
647 645 0
646 -647 -645 0
352 -645 0
-352 645 0
648 -649 0
650 648 0
649 -650 -648 0
356 -648 0
-356 648 0
651 -652 0
653 651 0
652 -653 -651 0
360 -651 0
-360 651 0
654 -655 0
656 654 0
655 -656 -654 0
361 -654 0
-361 654 0
657 -658 0
659 657 0
658 -659 -657 0
366 -657 0
-366 657 0
660 -661 0
662 660 0
661 -662 -660 0
370 -660 0
-370 660 0
663 -664 0
665 663 0
664 -665 -663 0
374 -663 0
-374 663 0
666 -667 0
668 666 0
667 -668 -666 0
379 -666 0
-379 666 0
383 0
-386 0
389 0
392 0
-395 0
-398 0
401 0
404 0
-407 0
-410 0
413 0
416 0
-419 0
-422 0
425 0
-428 0
-431 0
434 0
-437 0
-440 0
443 0
-446 0
-449 0
-452 0
455 0
-458 0
461 0
-464 0
467 0
-470 0
-473 0
476 0
-479 0
482 0
-485 0
-488 0
-491 0
-494 0
497 0
-500 0
-503 0
506 0
509 0
512 0
515 0
518 0
521 0
-524 0
527 0
-530 0
533 0
-536 0
-539 0
542 0
-545 0
548 0
551 0
-554 0
-557 0
560 0
-563 0
-566 0
569 0
-572 0
-575 0
578 0
-581 0
584 0
587 0
590 0
593 0
-596 0
-599 0
-602 0
605 0
-608 0
611 0
614 0
617 0
-620 0
623 0
-626 0
-629 0
632 0
635 0
-638 0
-641 0
-644 0
647 0
-650 0
653 0
656 0
-659 0
662 0
665 0
-668 0
4 0
14 0
38 0
54 0
66 0
91 0
107 0
117 0
146 0
158 0
-168 0
-193 0
-217 0
-241 0
-274 0
-290 0
-310 0
-330 0
-350 0
-364 0
382 -460 0
460 -382 0
385 -463 0
463 -385 0
388 -466 0
466 -388 0
388 -505 0
505 -388 0
388 -652 0
652 -388 0
397 -409 0
409 -397 0
400 -412 0
412 -400 0
403 -415 0
415 -403 0
406 -418 0
418 -406 0
403 -424 0
424 -403 0
406 -427 0
427 -406 0
403 -454 0
454 -403 0
406 -457 0
457 -406 0
403 -496 0
496 -403 0
406 -493 0
493 -406 0
415 -424 0
424 -415 0
418 -427 0
427 -418 0
415 -454 0
454 -415 0
418 -457 0
457 -418 0
415 -496 0
496 -415 0
418 -493 0
493 -418 0
421 -451 0
451 -421 0
424 -454 0
454 -424 0
427 -457 0
457 -427 0
424 -496 0
496 -424 0
427 -493 0
493 -427 0
436 -487 0
487 -436 0
439 -478 0
478 -439 0
442 -481 0
481 -442 0
445 -484 0
484 -445 0
454 -496 0
496 -454 0
457 -493 0
493 -457 0
466 -505 0
505 -466 0
466 -652 0
652 -466 0
502 -649 0
649 -502 0
505 -652 0
652 -505 0
538 -595 0
595 -538 0
541 -592 0
592 -541 0
